; benchmark generated from python API
(set-info :status unknown)
(declare-fun L_1 () Real)
(declare-fun S_1 () Real)
(declare-fun A_1 () Real)
(declare-fun L_0 () Real)
(declare-fun S_0 () Real)
(declare-fun A_0 () Real)
(declare-fun A_3 () Real)
(declare-fun S_3 () Real)
(declare-fun L_2 () Real)
(declare-fun A_4 () Real)
(declare-fun S_2 () Real)
(declare-fun A_2 () Real)
(declare-fun loss_rate_tol () Real)
(assert
 (let (($x34 (>= L_0 0.0)))
 (let ((?x1054 (* (- 1.0) S_0)))
 (let ((?x386 (* (- 1.0) A_4)))
 (let ((?x2197 (* 2.0 A_3)))
 (let ((?x270 (* (- 1.0) L_2)))
 (let (($x16517 (not (<= 0.0 (+ ?x270 ?x2197 ?x386 ?x1054)))))
 (let ((?x253 (* (- 1.0) L_1)))
 (let ((?x1075 (* (- 1.0) A_0)))
 (let (($x15191 (not (<= 0.0 (+ A_3 ?x386 A_1 ?x1075 ?x253 loss_rate_tol L_0)))))
 (let (($x14959 (not (<= 0.0 loss_rate_tol))))
 (let ((?x2621 (* 2.0 loss_rate_tol)))
 (let ((?x352 (* (- 1.0) S_1)))
 (let ((?x1944 (* (- 2.0) A_4)))
 (let (($x16435 (not (<= (- 5.0) (+ ?x2197 ?x1944 A_2 ?x352 ?x253 ?x2621)))))
 (let (($x61 (= L_2 L_1)))
 (let (($x3256 (not $x61)))
 (let (($x16480 (not (<= 0.0 (+ (* (/ 3.0 4.0) A_3) (* (- (/ 3.0 4.0)) A_4) S_2 ?x1054)))))
 (let (($x14989 (<= 0.0 (+ A_3 ?x386 A_2 (* (- 1.0) A_1) L_1 ?x270 loss_rate_tol))))
 (let (($x14990 (not $x14989)))
 (let (($x16293 (not (<= 0.0 (+ (* (/ 1.0 2.0) A_3) (* (- (/ 1.0 2.0)) A_4) S_1 ?x1054)))))
 (let (($x15195 (<= 0.0 (+ A_3 ?x386 A_2 (* (- 1.0) S_2) ?x270 loss_rate_tol))))
 (let (($x15196 (not $x15195)))
 (let (($x15975 (not (<= (- 5.0) (+ ?x2197 ?x1944 A_2 ?x1075 ?x270 ?x2621 L_0)))))
 (let ((?x5417 (* (/ 3.0 2.0) loss_rate_tol)))
 (let ((?x4399 (* (- (/ 1.0 2.0)) L_2)))
 (let ((?x4960 (* (- (/ 1.0 2.0)) S_0)))
 (let ((?x4066 (* (/ 1.0 2.0) A_2)))
 (let ((?x5677 (* (- (/ 3.0 2.0)) A_4)))
 (let ((?x3129 (* (/ 3.0 2.0) A_3)))
 (let (($x15414 (not (<= (- 5.0) (+ ?x3129 ?x5677 ?x4066 ?x4960 ?x4399 ?x5417)))))
 (let (($x439 (not (<= 0.0 (+ (* (/ 5.0 4.0) A_3) (* (- (/ 1.0 4.0)) A_4) (* (- 1.0) A_2))))))
 (let (($x16337 (not (<= 0.0 (+ ?x270 (* (/ 7.0 4.0) A_3) (* (- (/ 3.0 4.0)) A_4) ?x1075 L_0)))))
 (let (($x15727 (<= 0.0 (+ A_3 ?x386 A_1 ?x352 loss_rate_tol (* (- 1.0) L_0)))))
 (let (($x15728 (not $x15727)))
 (let (($x51 (= L_1 L_0)))
 (let (($x2872 (not $x51)))
 (let (($x16440 (not (<= 0.0 (+ (* (/ 1.0 2.0) A_3) (* (- (/ 1.0 2.0)) A_4) S_2 ?x352)))))
 (let (($x15483 (not (<= (- 5.0) (+ ?x2197 ?x1944 A_1 ?x1054 ?x253 ?x2621)))))
 (let (($x451 (not (<= (- 5.0) (+ (* (/ 1.0 4.0) A_3) (* (- (/ 1.0 4.0)) A_4))))))
 (let (($x16290 (not (<= 0.0 (+ (* (/ 1.0 4.0) A_3) (* (- (/ 1.0 4.0)) A_4) ?x1075 S_1 L_0)))))
 (let ((?x1042 (* (- 2.0) L_1)))
 (let ((?x358 (* (- 1.0) S_2)))
 (let ((?x1041 (* 2.0 A_1)))
 (let (($x15533 (not (<= 0.0 (+ ?x2197 ?x1944 ?x1041 ?x358 ?x1054 ?x1042 ?x2621)))))
 (let ((?x6771 (* 4.0 loss_rate_tol)))
 (let ((?x6769 (* (- 4.0) A_4)))
 (let ((?x7411 (* 5.0 A_3)))
 (let ((?x6003 (* 3.0 loss_rate_tol)))
 (let ((?x4575 (* (- 3.0) A_4)))
 (let ((?x1929 (* 3.0 A_3)))
 (let (($x15909 (<= 0.0 (+ ?x2197 ?x386 (* (- 1.0) A_2) A_1 ?x358 ?x253 loss_rate_tol))))
 (let (($x15910 (not $x15909)))
 (let (($x16347 (not (<= 0.0 (+ (* (/ 1.0 2.0) A_3) (* (- (/ 1.0 2.0)) A_4) ?x1075 S_2 L_0)))))
 (let (($x16506 (or $x14959 $x16347 (not (<= (- 10.0) (+ ?x2197 ?x1944 ?x1075 S_2 ?x2621 L_0))))))
 (let (($x16321 (not (<= 0.0 (+ ?x270 ?x3129 (* (- (/ 1.0 2.0)) A_4) ?x358)))))
 (let ((?x9152 (* (/ 2.0 3.0) loss_rate_tol)))
 (let ((?x8934 (* (- (/ 2.0 3.0)) L_1)))
 (let ((?x7285 (* (/ 2.0 3.0) A_1)))
 (let ((?x9150 (* (- (/ 2.0 3.0)) A_4)))
 (let ((?x13619 (* (- (/ 1.0 3.0)) L_2)))
 (let (($x15917 (not (<= 0.0 (+ ?x13619 A_3 ?x9150 ?x7285 ?x358 ?x8934 ?x9152)))))
 (let (($x15323 (not (<= (- 5.0) (+ A_3 ?x386 A_1 ?x358 ?x253 loss_rate_tol)))))
 (let (($x16377 (not (<= 0.0 (+ ?x270 (* (/ 7.0 4.0) A_3) (* (- (/ 3.0 4.0)) A_4) ?x352)))))
 (let (($x15149 (not (<= 0.0 (+ A_3 ?x386 A_1 ?x352 ?x253 loss_rate_tol)))))
 (let (($x16445 (or $x14959 $x16377 (not (<= (- 15.0) (+ ?x270 (* 4.0 A_3) ?x4575 ?x352 ?x6003))))))
 (let (($x15064 (<= 0.0 (+ ?x270 ?x3129 (* (- (/ 1.0 2.0)) A_4) (* (- 1.0) A_1) L_1))))
 (let (($x15065 (not $x15064)))
 (let (($x16437 (or $x14959 (not (<= (- 10.0) (+ ?x270 ?x1929 ?x1944 (* (- 1.0) A_1) L_1 ?x2621))) $x15065)))
 (let (($x16423 (or $x14959 $x16290 (not (<= (- 5.0) (+ A_3 ?x386 ?x1075 S_1 loss_rate_tol L_0))))))
 (let (($x15075 (<= 0.0 (+ (* (/ 1.0 4.0) A_3) (* (- (/ 1.0 4.0)) A_4) (* (- 1.0) A_1) S_2 L_1))))
 (let (($x15076 (not $x15075)))
 (let ((?x378 (* (- 1.0) A_1)))
 (let ((?x15080 (+ A_3 ?x386 ?x378 S_2 L_1 loss_rate_tol)))
 (let (($x16345 (or $x14959 $x16337 (not (<= (- 15.0) (+ ?x270 (* 4.0 A_3) ?x4575 ?x1075 ?x6003 L_0))))))
 (let (($x15354 (not (<= 0.0 (+ (* (- 1.0) A_3) A_4 ?x378 S_0 L_1)))))
 (let (($x14528 (not (<= (- 10.0) (+ A_3 ?x386 loss_rate_tol)))))
 (let (($x16160 (not (<= (- 5.0) (+ ?x2197 ?x1944 A_2 ?x352 ?x270 ?x2621)))))
 (let ((?x1048 (* 2.0 L_1)))
 (let ((?x1047 (* (- 2.0) A_1)))
 (let ((?x1648 (* 3.0 A_2)))
 (let ((?x1049 (* (- 2.0) L_2)))
 (let (($x15215 (<= 0.0 (+ ?x1049 ?x386 ?x1648 ?x1047 ?x1048))))
 (let ((?x804 (+ L_1 ?x270)))
 (let (($x445 (<= 0.0 ?x804)))
 (let ((?x380 (* (- 1.0) A_2)))
 (let ((?x14794 (* (/ 1.0 3.0) L_2)))
 (let (($x15967 (or $x61 (<= (+ L_2 A_3 (* (- 2.0) A_2) A_1 ?x253) (- 10.0)) (<= (+ ?x14794 (* (/ 2.0 3.0) A_3) ?x380 (* (/ 1.0 3.0) S_0)) (- 5.0)))))
 (let (($x2104 (<= (+ A_1 ?x358 ?x253) 0.0)))
 (let (($x16748 (or $x51 (<= (+ ?x378 (* (/ 1.0 2.0) S_2) (* (/ 1.0 2.0) S_0) L_1) (- 5.0)))))
 (let ((?x1340 (* (- (/ 1.0 2.0)) A_4)))
 (let (($x15385 (<= (- 5.0) (+ A_3 ?x1340 (* (- (/ 1.0 2.0)) A_2) (* (/ 1.0 2.0) loss_rate_tol)))))
 (let (($x15370 (<= (+ (* (/ 1.0 2.0) L_2) (* (/ 1.0 2.0) A_3) ?x380 (* (/ 1.0 2.0) S_1)) (- 5.0))))
 (let (($x15305 (or $x2104 (<= (+ ?x13619 (* (/ 1.0 3.0) A_3) ?x358 (* (/ 2.0 3.0) S_0)) 0.0))))
 (let (($x15229 (not (<= 0.0 (+ A_3 ?x386 ?x380 ?x1041 ?x1054 ?x1042 L_2 loss_rate_tol)))))
 (let (($x15198 (<= 0.0 (+ A_3 ?x386 (* 2.0 A_2) ?x378 ?x358 L_1 ?x1049))))
 (let (($x15184 (not (<= (- 5.0) (+ A_3 ?x386 A_2 ?x378 ?x270 L_1 loss_rate_tol)))))
 (let (($x1045 (<= (+ (* (- 2.0) A_2) ?x1041 S_2 ?x352 ?x1042 (* 2.0 L_2)) 0.0)))
 (let ((?x1841 (* (- 4.0) L_1)))
 (let ((?x1840 (* 4.0 A_1)))
 (let ((?x1839 (* (- 4.0) A_2)))
 (let ((?x1056 (* 3.0 L_2)))
 (let ((?x1055 (* (- 3.0) L_1)))
 (let ((?x1053 (* 3.0 A_1)))
 (let ((?x1052 (* (- 3.0) A_2)))
 (let ((?x1043 (* 2.0 L_2)))
 (let (($x18388 (or $x61 (<= (+ L_2 A_3 (* (- 2.0) A_2) ?x1041 ?x358 ?x1042) 0.0))))
 (let (($x14685 (or $x51 (<= (+ ?x13619 (* (/ 1.0 3.0) A_3) ?x378 (* (/ 2.0 3.0) S_0) L_1) (- 5.0)))))
 (let (($x24021 (or $x61 (<= (+ (* (- 2.0) A_2) ?x1041 S_1 ?x1054 ?x1042 ?x1043) 0.0))))
 (let (($x17049 (or $x61 (<= (+ (* (- 2.0) A_2) ?x1041 ?x1075 S_2 ?x1042 ?x1043 L_0) 0.0))))
 (let (($x108 (>= S_1 S_0)))
 (let (($x111 (>= S_2 S_1)))
 (let (($x119 (>= A_1 A_0)))
 (let (($x120 (>= A_2 A_1)))
 (let (($x121 (>= A_3 A_2)))
 (and (<= (+ A_3 ?x270) S_3) $x121 $x120 $x119 $x111 $x108 (or $x51 (not (<= 0.0 (+ ?x253 L_0)))) (or $x61 (<= (+ ?x380 S_2 L_2) (- 5.0))) (or (not $x445) $x61) (or $x51 (<= (+ ?x378 S_1 L_1) (- 5.0))) $x17049 (or $x61 (<= (+ ?x380 A_1 ?x1075 S_1 ?x253 L_2 L_0) 0.0)) $x24021 (or $x61 (<= (+ ?x1052 ?x1053 S_2 ?x1054 ?x1055 ?x1056) 0.0)) $x14685 (or $x61 (<= (+ L_2 A_3 (* (- 2.0) A_2) A_1 ?x253) (- 5.0))) (or $x439 $x14959 (not (<= (- 5.0) (+ ?x2197 ?x386 ?x380 loss_rate_tol)))) $x18388 (or $x51 (<= (+ A_2 ?x378 ?x358 S_0 L_1 ?x270) 0.0)) (or $x51 (<= (+ A_2 ?x1047 S_0 ?x1048 ?x270) (- 5.0))) (or $x61 (<= (+ ?x1043 A_3 ?x1052 ?x1053 ?x352 ?x1055) 0.0)) (or $x61 (<= (+ ?x1043 A_3 ?x1052 ?x1053 ?x1075 ?x1055 L_0) 0.0)) (or $x61 (<= (+ ?x1056 A_3 ?x1839 ?x1840 ?x1054 ?x1841) 0.0)) (or $x61 $x1045) (or $x51 $x14959 $x15184) (or $x14959 $x15065 $x15191) (or $x14959 $x15065 $x15196) (or $x14959 $x15065 $x15149) (or $x61 $x15191 $x15198) (or $x61 $x15064 $x15191) (or $x61 $x15196 $x15215) (or $x61 $x15215 $x15229) (or $x61 $x15149 $x15198) (or $x61 $x15064 $x15149) (or $x61 $x14959 $x15229) (or $x2104 (<= (+ ?x358 S_0) (- 5.0))) $x15305 (or (<= 0.0 (+ ?x253 L_0)) $x14959 $x15323) (or $x451 $x14528 $x14959) (or $x61 $x15370) (or $x61 $x14959 (not $x15385)) $x16748 (or $x51 (<= (+ A_3 ?x380 ?x378 S_0 L_1) (- 5.0))) (or $x2104 (<= (+ A_3 ?x380 ?x358 S_0) 0.0)) (or $x51 (<= (+ ?x378 S_0 L_1) (- 10.0))) (or $x61 (<= (+ ?x380 (* (/ 3.0 2.0) S_1) ?x4960 L_2) (- 5.0))) (or $x61 (<= (+ ?x380 ?x1075 (* 2.0 S_1) L_2 L_0) (- 5.0))) (or (<= 0.0 (+ ?x253 L_0)) $x14959 $x15191) (or $x51 $x14959 (not (<= (- 10.0) ?x15080))) (or $x51 $x14959 (not (<= (- 15.0) (+ ?x270 ?x1929 ?x1944 ?x378 L_1 ?x2621)))) (or (<= 0.0 (+ ?x253 L_0)) $x14959 $x15149) (or (<= 0.0 (+ ?x253 L_0)) $x14959 $x15910) (or (<= 0.0 (+ ?x253 L_0)) $x14959 $x15917) (or $x51 $x14959 $x15196) (or $x445 $x14959 $x14990) (or (<= 0.0 (+ ?x253 L_0)) $x14959 $x15483) (or $x51 (not (<= (- 5.0) (+ ?x2197 ?x386 ?x380 loss_rate_tol))) $x15354) (or (<= 0.0 (+ ?x253 L_0)) $x14959 $x15533) $x15967 (or $x445 $x14959 $x15975) (or $x14959 $x15065 $x15414) (or $x445 $x15064 $x15414) (or $x445 $x15215 $x16160) (or $x14959 $x15065 $x16160) (or $x14959 $x14990 $x15065) (or $x51 $x14528 $x15354) (or $x14959 $x15533 $x16293) $x16345 (or $x14959 $x15076 (not (<= (- 5.0) ?x15080))) (or $x14959 $x14990 $x15076) (or $x439 $x14959 $x15149) $x16423 (or $x14959 $x15191 $x16290) (or $x14959 $x16321 (not (<= (- 10.0) (+ ?x270 ?x1929 ?x1944 ?x358 ?x2621)))) $x16437 (or $x14959 $x14990 $x16347) (or $x3256 $x14959 $x16435 $x16440) (or $x14959 $x14990 $x16440) (or $x14959 $x14990 $x16377) (or $x3256 $x14959 $x16377 $x16435) $x16445 (or $x14959 $x15149 $x16377) (or $x14959 $x15196 $x16377) (or $x14959 $x15196 $x16321) (or $x14959 $x15196 $x16337) (or $x451 $x14959 $x15323) (or $x14959 $x15917 $x16321) (or $x14959 $x14990 $x16337) (or $x14959 $x14990 $x16290) (or $x14959 $x16440 (not (<= (- 10.0) (+ ?x2197 ?x1944 S_2 ?x352 ?x2621)))) $x16506 (or $x14959 $x15975 $x16347) (or $x14959 $x15975 $x16337) (or $x14959 $x15191 $x16347) (or $x14959 $x16293 (not (<= (- 10.0) (+ ?x2197 ?x1944 S_1 ?x1054 ?x2621)))) (or $x14959 $x15975 $x16290) (or $x14959 $x15483 $x16293) (or $x439 $x14959 $x15910) (or $x14959 $x16480 (not (<= (- 15.0) (+ ?x1929 ?x4575 S_2 ?x1054 ?x6003)))) (or $x14959 $x16517 (not (<= (- 20.0) (+ ?x270 ?x7411 ?x6769 ?x1054 ?x6771)))) (or $x439 $x14959 $x15483) (or $x439 $x14959 $x15533) (or $x14959 $x15533 $x16480) (or $x14959 $x15533 $x16517) (or $x14959 $x15483 $x16517) (or $x14959 $x15483 $x16480) (or $x451 $x14959 $x15533) (or $x451 $x2872 $x14959 $x15728) (or $x451 $x14959 $x15191) (or $x14959 $x15196 $x16290) (or $x14959 $x15196 $x16293) (or $x14959 $x15414 $x16480) (or $x451 $x14959 $x15483) (or $x14959 $x15414 $x16293) (or $x14959 $x15975 $x16293) (or $x14959 $x15191 $x16293) (or $x2872 $x14959 $x15728 $x16440) (or $x2872 $x14959 $x15728 $x16480) (or $x2872 $x14959 $x15728 $x16517) (or $x14959 $x15191 $x16337) (or $x439 $x14959 $x15191) (or $x14959 $x15975 $x16480) (or $x14959 $x15414 $x16517) (or $x14959 $x15975 $x16517) (or $x14959 $x14990 $x16480) (or $x14959 $x15196 $x16517) (or $x14959 $x14990 $x16293) (or $x14959 $x15191 $x16480) (or $x14959 $x14990 $x16517) (or $x3256 $x14959 $x16435 $x16480) (or $x3256 $x14959 $x16435 $x16517) (or $x14959 $x15191 $x16517) $x34 (<= (+ L_2 ?x380 S_2) 0.0) (<= (+ L_2 S_3 ?x386) 0.0) (<= (+ L_2 S_3 (* (- 1.0) A_3)) 0.0) (<= (+ ?x1075 S_0 L_0) 0.0) (<= (+ ?x378 S_1 L_1) 0.0)))))))))))))))))))))))))))))))))))))))))))))))))))))))))))))))))))))))))))))))))))))))))))))))))))))))))))))))))))))
(check-sat)
